NAME : normzf\1b2b3c4a.knd
COMMENT : 
TYPE : CVRP
DIMENSION : 201
EDGE_WEIGHT_TYPE : EUC_2D
CAPACITY : 10100
CAPACITY_VOL : 50
NODE_COORD_TYPE : TWOD_COORDS
NODE_COORD_SECTION
1 23452 56766
2 24176 55398
3 24826 56073
4 23931 55292
5 24389 55556
6 24389 55556
7 23962 58219
8 24967 56927
9 24389 55556
10 24389 55556
11 23490 55245
12 24730 55952
13 23055 55277
14 23519 55253
15 23913 55329
16 24936 56569
17 24641 55866
18 23886 55333
19 23857 55331
20 24736 57494
21 23316 55293
22 24882 56364
23 23111 55328
24 23909 55363
25 23781 55336
26 23383 55306
27 23922 55396
28 24529 55824
29 23975 55432
30 22964 55409
31 23977 55417
32 24859 56559
33 24865 56894
34 24120 55530
35 24853 56635
36 23628 55374
37 23027 55413
38 23984 55453
39 24858 56682
40 24853 56635
41 23934 55451
42 23272 55388
43 24670 56099
44 24060 55502
45 23015 55443
46 24802 56449
47 23315 55396
48 24802 56449
49 24802 56449
50 24665 56133
51 23888 55469
52 23771 55425
53 23585 58130
54 23286 55411
55 24157 55613
56 24023 55522
57 23151 55438
58 24699 57344
59 23452 55413
60 23987 55515
61 23756 55448
62 23347 55426
63 23298 55440
64 23454 55438
65 23665 55459
66 23951 55541
67 24133 55654
68 23964 55539
69 24254 55721
70 24272 55769
71 24107 55662
72 23671 55497
73 24233 55741
74 24206 55748
75 24092 55671
76 24427 55950
77 24313 55844
78 23463 55528
79 23237 55540
80 23237 55540
81 24618 56366
82 24025 55693
83 24618 56366
84 24025 55693
85 23541 55545
86 23809 57942
87 24191 55797
88 23561 55560
89 24281 55891
90 24281 55891
91 24189 55824
92 23488 55601
93 24534 56287
94 23176 55627
95 23787 55642
96 24296 55985
97 24257 55939
98 23392 55623
99 24047 57717
100 24353 56101
101 24190 55912
102 23763 57856
103 23738 55670
104 23901 55730
105 23161 55676
106 24272 56012
107 24363 56159
108 23353 55666
109 23631 55688
110 23909 55765
111 24172 55945
112 24172 55945
113 24384 56229
114 23530 55685
115 24095 55906
116 24095 55906
117 24095 55906
118 23979 55846
119 24339 57337
120 23553 55697
121 23553 55697
122 23854 55779
123 24188 56012
124 24188 56012
125 24176 56010
126 24424 57151
127 24113 55965
128 23481 55732
129 24113 55965
130 24069 55942
131 24296 56183
132 23555 55757
133 24269 56175
134 24057 57573
135 24233 56129
136 23716 55785
137 24233 56129
138 24233 56129
139 23574 55779
140 23178 55805
141 23531 55791
142 24213 56195
143 23600 55834
144 24229 56252
145 24068 56062
146 23529 55828
147 24191 56210
148 23794 55901
149 24130 56129
150 24192 56232
151 23977 56026
152 23266 55874
153 23952 57522
154 23911 55985
155 24349 56942
156 24120 56156
157 24064 56133
158 24180 57250
159 24180 57250
160 24138 56215
161 24138 56215
162 23504 55911
163 23801 55970
164 24034 56139
165 24213 56389
166 24050 56208
167 23788 56004
168 24030 56211
169 24078 56272
170 24003 56194
171 24032 57316
172 24211 56866
173 24085 56352
174 23736 56063
175 23033 56180
176 23609 56050
177 23660 56105
178 23216 56115
179 23289 56203
180 23076 56326
181 24014 56652
182 23188 57242
183 22977 56493
184 23141 56324
185 23828 57117
186 23906 56906
187 23632 56397
188 23147 56981
189 23194 56531
190 23182 56578
191 23253 57013
192 23576 57065
193 23253 57013
194 23620 57021
195 23744 56811
196 23731 56705
197 23634 56979
198 23412 56509
199 23289 56817
200 23339 56756
201 23339 56756
DEMAND_SECTION
1 0 0
2 60 0
3 30 0
4 30 0
5 50 0
6 40 0
7 10 0
8 60 0
9 20 0
10 40 0
11 20 0
12 10 0
13 40 0
14 30 0
15 60 0
16 70 0
17 50 0
18 40 0
19 50 0
20 50 0
21 50 0
22 10 0
23 30 0
24 20 0
25 30 0
26 90 0
27 70 0
28 80 0
29 80 0
30 40 0
31 50 0
32 10 0
33 30 0
34 60 0
35 80 0
36 50 0
37 80 0
38 60 0
39 10 0
40 30 0
41 70 0
42 70 0
43 40 0
44 50 0
45 20 0
46 50 0
47 10 0
48 20 0
49 90 0
50 50 0
51 10 0
52 70 0
53 60 0
54 70 0
55 90 0
56 90 0
57 20 0
58 90 0
59 70 0
60 20 0
61 40 0
62 50 0
63 90 0
64 60 0
65 50 0
66 10 0
67 60 0
68 70 0
69 50 0
70 40 0
71 10 0
72 70 0
73 20 0
74 80 0
75 10 0
76 10 0
77 90 0
78 80 0
79 80 0
80 60 0
81 50 0
82 60 0
83 80 0
84 20 0
85 40 0
86 90 0
87 90 0
88 90 0
89 10 0
90 70 0
91 70 0
92 30 0
93 80 0
94 50 0
95 20 0
96 50 0
97 40 0
98 30 0
99 60 0
100 90 0
101 50 0
102 20 0
103 70 0
104 60 0
105 20 0
106 50 0
107 20 0
108 60 0
109 40 0
110 50 0
111 70 0
112 50 0
113 80 0
114 70 0
115 80 0
116 80 0
117 30 0
118 20 0
119 90 0
120 50 0
121 60 0
122 80 0
123 80 0
124 10 0
125 20 0
126 10 0
127 10 0
128 60 0
129 10 0
130 30 0
131 90 0
132 70 0
133 20 0
134 90 0
135 40 0
136 70 0
137 40 0
138 70 0
139 70 0
140 40 0
141 70 0
142 40 0
143 20 0
144 40 0
145 60 0
146 40 0
147 40 0
148 90 0
149 20 0
150 20 0
151 80 0
152 60 0
153 60 0
154 30 0
155 80 0
156 40 0
157 50 0
158 10 0
159 40 0
160 60 0
161 70 0
162 90 0
163 90 0
164 50 0
165 50 0
166 80 0
167 50 0
168 80 0
169 10 0
170 40 0
171 10 0
172 80 0
173 90 0
174 40 0
175 60 0
176 40 0
177 20 0
178 20 0
179 60 0
180 20 0
181 80 0
182 10 0
183 90 0
184 30 0
185 60 0
186 60 0
187 30 0
188 60 0
189 30 0
190 70 0
191 50 0
192 10 0
193 90 0
194 90 0
195 50 0
196 30 0
197 90 0
198 50 0
199 70 0
200 70 0
201 60 0
PICKUP_SECTION
1 0 0
2 0 0
3 0 0
4 0 0
5 0 0
6 0 0
7 0 0
8 0 0
9 0 0
10 0 0
11 0 0
12 0 0
13 0 0
14 0 0
15 0 0
16 0 0
17 0 0
18 0 0
19 0 0
20 0 0
21 0 0
22 0 0
23 0 0
24 0 0
25 0 0
26 0 0
27 0 0
28 0 0
29 0 0
30 0 0
31 0 0
32 0 0
33 0 0
34 0 0
35 0 0
36 0 0
37 0 0
38 0 0
39 0 0
40 0 0
41 0 0
42 0 0
43 0 0
44 0 0
45 0 0
46 0 0
47 0 0
48 0 0
49 0 0
50 0 0
51 0 0
52 0 0
53 0 0
54 0 0
55 0 0
56 0 0
57 0 0
58 0 0
59 0 0
60 0 0
61 0 0
62 0 0
63 0 0
64 0 0
65 0 0
66 0 0
67 0 0
68 0 0
69 0 0
70 0 0
71 0 0
72 0 0
73 0 0
74 0 0
75 0 0
76 0 0
77 0 0
78 0 0
79 0 0
80 0 0
81 0 0
82 0 0
83 0 0
84 0 0
85 0 0
86 0 0
87 0 0
88 0 0
89 0 0
90 0 0
91 0 0
92 0 0
93 0 0
94 0 0
95 0 0
96 0 0
97 0 0
98 0 0
99 0 0
100 0 0
101 0 0
102 0 0
103 0 0
104 0 0
105 0 0
106 0 0
107 0 0
108 0 0
109 0 0
110 0 0
111 0 0
112 0 0
113 0 0
114 0 0
115 0 0
116 0 0
117 0 0
118 0 0
119 0 0
120 0 0
121 0 0
122 0 0
123 0 0
124 0 0
125 0 0
126 0 0
127 0 0
128 0 0
129 0 0
130 0 0
131 0 0
132 0 0
133 0 0
134 0 0
135 0 0
136 0 0
137 0 0
138 0 0
139 0 0
140 0 0
141 0 0
142 0 0
143 0 0
144 0 0
145 0 0
146 0 0
147 0 0
148 0 0
149 0 0
150 0 0
151 0 0
152 0 0
153 0 0
154 0 0
155 0 0
156 0 0
157 0 0
158 0 0
159 0 0
160 0 0
161 0 0
162 0 0
163 0 0
164 0 0
165 0 0
166 0 0
167 0 0
168 0 0
169 0 0
170 0 0
171 0 0
172 0 0
173 0 0
174 0 0
175 0 0
176 0 0
177 0 0
178 0 0
179 0 0
180 0 0
181 0 0
182 0 0
183 0 0
184 0 0
185 0 0
186 0 0
187 0 0
188 0 0
189 0 0
190 0 0
191 0 0
192 0 0
193 0 0
194 0 0
195 0 0
196 0 0
197 0 0
198 0 0
199 0 0
200 0 0
201 0 0
TIME_WINDOW_SECTION
2  7:00 18:00
3  7:00 18:00
4 11:30 15:30
5  7:00 18:00
6  7:00 18:00
7  7:00 18:00
8  9:45 14:15
9  7:00 18:00
10  7:00 18:00
11  7:00 18:00
12 10:45 13:45
13  7:00 18:00
14  9:00 14:00
15 12:15 14:45
16  7:00 18:00
17  7:00 18:00
18 11:15 14:45
19  7:00 18:00
20  7:00 18:00
21  7:00 18:00
22 11:45 14:30
23 14:00 15:15
24 10:30 15:00
25  7:30 12:30
26  7:00 12:00
27  7:00 18:00
28  9:30 12:30
28 13:30 15:15
29  7:00 18:00
30  7:00 18:00
31  8:45 12:45
31 13:45 15:15
32  7:00 18:00
33  7:00 11:30
33 13:00 15:00
34  7:00 18:00
35  7:00 18:00
36  9:30 11:30
36 12:30 15:15
37  7:00 18:00
38 13:00 14:15
39 11:00 15:15
40  7:00 18:00
41  7:00 18:00
42  7:00 18:00
43  7:15 12:00
44  7:00 18:00
45  7:00 18:00
46  7:00 18:00
47  8:15 13:15
48 11:15 12:45
49  7:15 11:15
50  7:00 18:00
51  7:00 18:00
52  7:00 18:00
53  7:15  9:45
54  7:45  9:15
55  8:00 12:45
56 11:15 14:45
57  7:15 11:45
57 12:45 15:15
58 13:30 15:00
59  7:00 18:00
60  7:30 12:30
61  7:00 18:00
62 10:45 13:30
63  7:00 18:00
64 10:00 12:30
65  8:45 10:30
65 11:30 15:45
66  7:00 18:00
67  7:00 18:00
68  8:00 12:15
69  7:00 18:00
70  7:00 10:15
71 11:30 15:15
72  7:00 18:00
73  7:00 18:00
74  7:00 18:00
75  7:00 18:00
76 11:45 13:45
77  7:00 18:00
78  7:00 18:00
79 11:30 14:30
80  7:00 18:00
81  8:00 11:30
81 12:45 15:00
82  8:30 13:00
83  8:15 13:15
84  7:00 18:00
85  7:00 18:00
86  9:15 11:15
86 13:15 15:30
87 12:30 15:15
88  8:15  9:45
89  9:45 12:30
90  7:00 18:00
91  7:00 18:00
92  7:00 18:00
93  8:00 10:15
94  9:15 12:00
94 13:00 16:00
95  9:00 13:15
96  9:30 10:45
97  7:00 18:00
98  7:00 18:00
99  7:45  9:00
100  8:00  9:30
100 10:30 13:30
101  7:00 18:00
102 12:45 15:15
103 13:45 15:30
104  7:00 18:00
105  7:00 18:00
106  7:00 18:00
107  7:00 18:00
108  7:00 10:15
108 12:30 16:00
109  7:00 18:00
110  7:30 11:45
111 12:45 15:45
112  7:45 10:15
113  7:00 18:00
114 12:15 13:45
115  9:15 13:15
116  8:30 10:30
117 12:45 14:15
118  7:00 18:00
119 10:00 13:00
120 11:45 16:00
121  7:00 18:00
122 10:45 13:45
122 15:00 16:15
123  7:00 18:00
124  7:00 18:00
125  7:00 12:00
125 14:15 15:30
126  7:00 18:00
127  8:15 13:00
128  7:00 18:00
129  7:00 18:00
130 11:15 14:45
131  7:00 18:00
132 13:45 15:30
133  7:00 18:00
134  7:00 18:00
135  9:00 13:30
136  7:00 18:00
137  8:15 13:00
138  7:00 18:00
139 10:00 12:15
140  7:00 18:00
141 10:15 12:00
142  7:00 18:00
143  7:00 18:00
144 10:15 13:45
145 13:15 14:30
146  7:00 18:00
147  7:00 18:00
148  7:00 18:00
149  7:00 18:00
150  7:00 18:00
151  7:00 18:00
152  7:00 18:00
153 14:00 16:15
154 11:15 12:30
155  7:00 18:00
156  7:00 18:00
157 11:30 16:30
158  7:00 18:00
159  7:00 18:00
160  7:00 18:00
161  7:00 18:00
162 11:15 16:00
163  8:00 12:45
164  8:00 13:00
165  7:00 18:00
166 11:45 14:00
167  7:00 18:00
168  7:00 18:00
169 10:45 14:45
170  7:00 18:00
171  7:00 18:00
172  7:00 11:45
173 12:30 14:45
174  7:00 18:00
175  7:00 18:00
176  9:15 13:15
177  7:00 18:00
178  9:15 12:00
179  7:00 18:00
180  9:00 14:00
181  7:00 12:00
181 13:00 16:30
182 13:00 16:45
183  7:00 18:00
184  7:00 18:00
185 14:45 16:30
186  8:30 11:15
186 14:15 15:45
187  8:15 12:00
188  7:00 18:00
189  7:30 10:45
190  9:15 10:45
190 12:00 16:00
191  7:00 18:00
192  8:00  9:45
193  7:45 10:45
193 11:45 16:30
194  7:00 18:00
195 12:45 16:30
196 11:00 15:45
197  7:00 18:00
198 12:45 15:00
199  7:00 18:00
200  7:00 18:00
201  7:00 18:00
STANDTIME_SECTION
2 5
3 5
4 5
5 5
6 5
7 5
8 5
9 5
10 5
11 5
12 5
13 5
14 5
15 5
16 5
17 5
18 5
19 5
20 5
21 5
22 5
23 5
24 5
25 5
26 5
27 5
28 5
29 5
30 5
31 5
32 5
33 5
34 5
35 5
36 5
37 5
38 5
39 5
40 5
41 5
42 5
43 5
44 5
45 5
46 5
47 5
48 5
49 5
50 5
51 5
52 5
53 5
54 5
55 5
56 5
57 5
58 5
59 5
60 5
61 5
62 5
63 5
64 5
65 5
66 5
67 5
68 5
69 5
70 5
71 5
72 5
73 5
74 5
75 5
76 5
77 5
78 5
79 5
80 5
81 5
82 5
83 5
84 5
85 5
86 5
87 5
88 5
89 5
90 5
91 5
92 5
93 5
94 5
95 5
96 5
97 5
98 5
99 5
100 5
101 5
102 5
103 5
104 5
105 5
106 5
107 5
108 5
109 5
110 5
111 5
112 5
113 5
114 5
115 5
116 5
117 5
118 5
119 5
120 5
121 5
122 5
123 5
124 5
125 5
126 5
127 5
128 5
129 5
130 5
131 5
132 5
133 5
134 5
135 5
136 5
137 5
138 5
139 5
140 5
141 5
142 5
143 5
144 5
145 5
146 5
147 5
148 5
149 5
150 5
151 5
152 5
153 5
154 5
155 5
156 5
157 5
158 5
159 5
160 5
161 5
162 5
163 5
164 5
165 5
166 5
167 5
168 5
169 5
170 5
171 5
172 5
173 5
174 5
175 5
176 5
177 5
178 5
179 5
180 5
181 5
182 5
183 5
184 5
185 5
186 5
187 5
188 5
189 5
190 5
191 5
192 5
193 5
194 5
195 5
196 5
197 5
198 5
199 5
200 5
201 5
DEPOT_SECTION
1
-1
EOF
